
===== New CPLEX run =====
Instance: /home/yorig/tuner/mpils-tests/instances/miplib/easy/lotsize.mps
Config: /scratch/yorig/mpils-results-grid-seconds-5-no-mip-start/easy/16proc/seed-3/4_lotsize_seed-3_20260502_223218/iterated_local_search/run_3_worker_11/ils_config_6923402967540927973.prm
========================

Selected objective sense:  MINIMIZE
Selected objective  name:  R1921
Selected RHS        name:  B
Selected bound      name:  BOUND
Version identifier: 22.1.2.0 | 2024-11-26 | 0edbb82fd
CPXPARAM_Threads                                 8
CPXPARAM_Parallel                                1
CPXPARAM_MIP_Strategy_SubAlgorithm               1
CPXPARAM_MIP_Strategy_VariableSelect             4
CPXPARAM_MIP_Cuts_FlowCovers                     1
CPXPARAM_MIP_Cuts_Implied                        -1
CPXPARAM_MIP_Cuts_GUBCovers                      -1
CPXPARAM_MIP_Cuts_MIRCut                         2
CPXPARAM_MIP_Cuts_Disjunctive                    2
CPXPARAM_Emphasis_MIP                            2
CPXPARAM_MIP_Strategy_BBInterval                 30
CPXPARAM_TimeLimit                               5
CPXPARAM_MIP_Limits_CutsFactor                   8
Tried aggregator 1 time.
MIP Presolve eliminated 595 rows and 0 columns.
MIP Presolve added 1190 rows and 0 columns.
MIP Presolve modified 10 coefficients.
Reduced MIP has 2515 rows, 2985 columns, and 7755 nonzeros.
Reduced MIP has 1195 binaries, 0 generals, 0 SOSs, and 0 indicators.
Presolve time = 0.00 sec. (4.53 ticks)
Probing fixed 0 vars, tightened 5487 bounds.
Probing time = 0.01 sec. (18.38 ticks)
Tried aggregator 2 times.
Detecting symmetries...
MIP Presolve modified 1206 coefficients.
Aggregator did 10 substitutions.
Reduced MIP has 2505 rows, 2975 columns, and 7735 nonzeros.
Reduced MIP has 1195 binaries, 0 generals, 0 SOSs, and 0 indicators.
Presolve time = 0.00 sec. (6.66 ticks)
Probing fixed 0 vars, tightened 2401 bounds.
Probing time = 0.00 sec. (6.41 ticks)
Clique table members: 190.
MIP emphasis: optimality.
MIP search method: dynamic search.
Parallel mode: deterministic, using up to 8 threads.
Root relaxation solution time = 0.01 sec. (7.84 ticks)

        Nodes                                         Cuts/
   Node  Left     Objective  IInf  Best Integer    Best Bound    ItCnt     Gap

      0     0   348385.3466   472                 348385.3466      882         
      0     0   526839.1591   564                   Cuts: 726     3195         
*     0+    0                       1.04207e+07   526839.1591            94.94%
*     0+    0                      8230245.0000   526839.1591            93.60%
      0     0   755303.5808   608  8230245.0000     Cuts: 726     5270   90.82%
      0     0   907289.8360   718  8230245.0000     Cuts: 726     7478   88.98%
*     0+    0                      1987375.0000   907289.8360            54.35%
      0     0  1022205.4109   639  1987375.0000     Cuts: 726     9409   48.57%
      0     0  1100184.0495   706  1987375.0000     Cuts: 726    11255   44.64%
Detecting symmetries...
      0     0  1153387.7876   734  1987375.0000     Cuts: 726    13072   41.48%
      0     0  1201964.0735   712  1987375.0000     Cuts: 726    14750   39.52%
      0     0  1234018.2271   786  1987375.0000     Cuts: 726    16561   37.59%

Cover cuts applied:  10
Flow cuts applied:  647
Mixed integer rounding cuts applied:  1158
Flow path cuts applied:  88
Multi commodity flow cuts applied:  55
Gomory fractional cuts applied:  10
Disjunctive cuts applied:  0
Cone linearizations applied:  0

Root node processing (before b&c):
  Real time             =    5.01 sec. (7567.39 ticks)
Parallel b&c, 8 threads:
  Real time             =    0.00 sec. (0.00 ticks)
  Sync time (average)   =    0.00 sec.
  Wait time (average)   =    0.00 sec.
                          ------------
Total (root+branch&cut) =    5.01 sec. (7567.39 ticks)
Gap: 37.59%
Upper bound: 1.98738e+06
Lower bound: 1.24025e+06
End of CPLEX run. Time: 5.00845 seconds

===== New CPLEX run =====
Instance: /home/yorig/tuner/mpils-tests/instances/miplib/easy/lotsize.mps
Config: /scratch/yorig/mpils-results-grid-seconds-5-no-mip-start/easy/16proc/seed-3/4_lotsize_seed-3_20260502_223218/iterated_local_search/run_3_worker_11/ils_config_14552735845813735208.prm
========================

Selected objective sense:  MINIMIZE
Selected objective  name:  R1921
Selected RHS        name:  B
Selected bound      name:  BOUND
Version identifier: 22.1.2.0 | 2024-11-26 | 0edbb82fd
CPXPARAM_Threads                                 8
CPXPARAM_Parallel                                1
CPXPARAM_MIP_Strategy_SubAlgorithm               1
CPXPARAM_MIP_Strategy_VariableSelect             4
CPXPARAM_MIP_Cuts_FlowCovers                     1
CPXPARAM_MIP_Cuts_Implied                        -1
CPXPARAM_MIP_Cuts_GUBCovers                      -1
CPXPARAM_MIP_Cuts_MIRCut                         2
CPXPARAM_MIP_Cuts_Disjunctive                    2
CPXPARAM_Emphasis_MIP                            4
CPXPARAM_MIP_Strategy_BBInterval                 30
CPXPARAM_TimeLimit                               5
CPXPARAM_MIP_Limits_CutsFactor                   8
Tried aggregator 1 time.
MIP Presolve eliminated 595 rows and 0 columns.
MIP Presolve added 1190 rows and 0 columns.
MIP Presolve modified 10 coefficients.
Reduced MIP has 2515 rows, 2985 columns, and 7755 nonzeros.
Reduced MIP has 1195 binaries, 0 generals, 0 SOSs, and 0 indicators.
Presolve time = 0.00 sec. (4.53 ticks)
Probing fixed 0 vars, tightened 5487 bounds.
Probing time = 0.01 sec. (18.38 ticks)
Tried aggregator 2 times.
Detecting symmetries...
MIP Presolve modified 1206 coefficients.
Aggregator did 10 substitutions.
Reduced MIP has 2505 rows, 2975 columns, and 7735 nonzeros.
Reduced MIP has 1195 binaries, 0 generals, 0 SOSs, and 0 indicators.
Presolve time = 0.00 sec. (6.66 ticks)
Probing fixed 0 vars, tightened 2401 bounds.
Probing time = 0.00 sec. (6.41 ticks)
Clique table members: 190.
MIP emphasis: hidden feasible solutions.
MIP search method: dynamic search.
Parallel mode: deterministic, using up to 8 threads.
Root relaxation solution time = 0.01 sec. (7.84 ticks)

        Nodes                                         Cuts/
   Node  Left     Objective  IInf  Best Integer    Best Bound    ItCnt     Gap

      0     0   348385.3466   472                 348385.3466      882         
      0     0   526839.1591   564                   Cuts: 726     3195         
*     0+    0                       1.04207e+07   526839.1591            94.94%
*     0+    0                      8230245.0000   526839.1591            93.60%
      0     0   755303.5808   608  8230245.0000     Cuts: 726     5270   90.82%
      0     0   907289.8360   718  8230245.0000     Cuts: 726     7478   88.98%
*     0+    0                      1987375.0000   907289.8360            54.35%
      0     0  1022205.4109   639  1987375.0000     Cuts: 726     9409   48.57%
      0     0  1100184.0495   706  1987375.0000     Cuts: 726    11255   44.64%
Detecting symmetries...
      0     0  1153387.7876   734  1987375.0000     Cuts: 726    13072   41.48%
      0     0  1201964.0735   712  1987375.0000     Cuts: 726    14750   39.52%
      0     0  1234018.2271   786  1987375.0000     Cuts: 726    16561   37.59%

Cover cuts applied:  10
Flow cuts applied:  647
Mixed integer rounding cuts applied:  1158
Flow path cuts applied:  88
Multi commodity flow cuts applied:  55
Gomory fractional cuts applied:  10
Disjunctive cuts applied:  0
Cone linearizations applied:  0

Root node processing (before b&c):
  Real time             =    5.01 sec. (7509.04 ticks)
Parallel b&c, 8 threads:
  Real time             =    0.00 sec. (0.00 ticks)
  Sync time (average)   =    0.00 sec.
  Wait time (average)   =    0.00 sec.
                          ------------
Total (root+branch&cut) =    5.01 sec. (7509.04 ticks)
Gap: 37.59%
Upper bound: 1.98738e+06
Lower bound: 1.24025e+06
End of CPLEX run. Time: 5.00989 seconds

===== New CPLEX run =====
Instance: /home/yorig/tuner/mpils-tests/instances/miplib/easy/lotsize.mps
Config: /scratch/yorig/mpils-results-grid-seconds-5-no-mip-start/easy/16proc/seed-3/4_lotsize_seed-3_20260502_223218/iterated_local_search/run_3_worker_11/ils_config_7427772549407383267.prm
========================

Selected objective sense:  MINIMIZE
Selected objective  name:  R1921
Selected RHS        name:  B
Selected bound      name:  BOUND
Version identifier: 22.1.2.0 | 2024-11-26 | 0edbb82fd
CPXPARAM_Threads                                 8
CPXPARAM_Parallel                                1
CPXPARAM_MIP_Strategy_SubAlgorithm               1
CPXPARAM_MIP_Strategy_VariableSelect             4
CPXPARAM_MIP_Cuts_FlowCovers                     1
CPXPARAM_MIP_Cuts_Implied                        -1
CPXPARAM_MIP_Cuts_GUBCovers                      -1
CPXPARAM_MIP_Cuts_MIRCut                         2
CPXPARAM_MIP_Cuts_Disjunctive                    2
CPXPARAM_Emphasis_MIP                            2
CPXPARAM_MIP_Strategy_BBInterval                 30
CPXPARAM_TimeLimit                               5
CPXPARAM_MIP_Limits_CutsFactor                   16
Tried aggregator 1 time.
MIP Presolve eliminated 595 rows and 0 columns.
MIP Presolve added 1190 rows and 0 columns.
MIP Presolve modified 10 coefficients.
Reduced MIP has 2515 rows, 2985 columns, and 7755 nonzeros.
Reduced MIP has 1195 binaries, 0 generals, 0 SOSs, and 0 indicators.
Presolve time = 0.00 sec. (4.53 ticks)
Probing fixed 0 vars, tightened 5487 bounds.
Probing time = 0.01 sec. (18.38 ticks)
Tried aggregator 2 times.
Detecting symmetries...
MIP Presolve modified 1206 coefficients.
Aggregator did 10 substitutions.
Reduced MIP has 2505 rows, 2975 columns, and 7735 nonzeros.
Reduced MIP has 1195 binaries, 0 generals, 0 SOSs, and 0 indicators.
Presolve time = 0.00 sec. (6.66 ticks)
Probing fixed 0 vars, tightened 2401 bounds.
Probing time = 0.00 sec. (6.41 ticks)
Clique table members: 190.
MIP emphasis: optimality.
MIP search method: dynamic search.
Parallel mode: deterministic, using up to 8 threads.
Root relaxation solution time = 0.01 sec. (7.84 ticks)

        Nodes                                         Cuts/
   Node  Left     Objective  IInf  Best Integer    Best Bound    ItCnt     Gap

      0     0   348385.3466   472                 348385.3466      882         
      0     0   526839.1591   564                   Cuts: 726     3195         
*     0+    0                       1.04207e+07   526839.1591            94.94%
*     0+    0                      8230245.0000   526839.1591            93.60%
      0     0   755303.5808   608  8230245.0000     Cuts: 726     5270   90.82%
      0     0   907289.8360   718  8230245.0000     Cuts: 726     7478   88.98%
*     0+    0                      1987375.0000   907289.8360            54.35%
      0     0  1022205.4109   639  1987375.0000     Cuts: 726     9409   48.57%
      0     0  1100184.0495   706  1987375.0000     Cuts: 726    11255   44.64%
Detecting symmetries...
      0     0  1153387.7876   734  1987375.0000     Cuts: 726    13072   41.48%
      0     0  1201964.0735   712  1987375.0000     Cuts: 726    14750   39.52%
      0     0  1234018.2271   786  1987375.0000     Cuts: 726    16561   37.59%

Cover cuts applied:  10
Flow cuts applied:  647
Mixed integer rounding cuts applied:  1158
Flow path cuts applied:  88
Multi commodity flow cuts applied:  55
Gomory fractional cuts applied:  10
Disjunctive cuts applied:  0
Cone linearizations applied:  0

Root node processing (before b&c):
  Real time             =    5.04 sec. (7416.70 ticks)
Parallel b&c, 8 threads:
  Real time             =    0.00 sec. (0.00 ticks)
  Sync time (average)   =    0.00 sec.
  Wait time (average)   =    0.00 sec.
                          ------------
Total (root+branch&cut) =    5.04 sec. (7416.70 ticks)
Gap: 37.59%
Upper bound: 1.98738e+06
Lower bound: 1.24025e+06
End of CPLEX run. Time: 5.04081 seconds

===== New CPLEX run =====
Instance: /home/yorig/tuner/mpils-tests/instances/miplib/easy/lotsize.mps
Config: /scratch/yorig/mpils-results-grid-seconds-5-no-mip-start/easy/16proc/seed-3/4_lotsize_seed-3_20260502_223218/iterated_local_search/run_3_worker_11/ils_config_3793633122984103223.prm
========================

Selected objective sense:  MINIMIZE
Selected objective  name:  R1921
Selected RHS        name:  B
Selected bound      name:  BOUND
Version identifier: 22.1.2.0 | 2024-11-26 | 0edbb82fd
CPXPARAM_Threads                                 8
CPXPARAM_Parallel                                1
CPXPARAM_MIP_Strategy_SubAlgorithm               1
CPXPARAM_MIP_Strategy_VariableSelect             -1
CPXPARAM_MIP_Cuts_FlowCovers                     1
CPXPARAM_MIP_Cuts_Implied                        -1
CPXPARAM_MIP_Cuts_GUBCovers                      -1
CPXPARAM_MIP_Cuts_MIRCut                         2
CPXPARAM_MIP_Cuts_Disjunctive                    2
CPXPARAM_Emphasis_MIP                            2
CPXPARAM_MIP_Strategy_BBInterval                 30
CPXPARAM_TimeLimit                               5
CPXPARAM_MIP_Limits_CutsFactor                   8
Tried aggregator 1 time.
MIP Presolve eliminated 595 rows and 0 columns.
MIP Presolve added 1190 rows and 0 columns.
MIP Presolve modified 10 coefficients.
Reduced MIP has 2515 rows, 2985 columns, and 7755 nonzeros.
Reduced MIP has 1195 binaries, 0 generals, 0 SOSs, and 0 indicators.
Presolve time = 0.00 sec. (4.53 ticks)
Probing fixed 0 vars, tightened 5487 bounds.
Probing time = 0.01 sec. (18.38 ticks)
Tried aggregator 2 times.
Detecting symmetries...
MIP Presolve modified 1206 coefficients.
Aggregator did 10 substitutions.
Reduced MIP has 2505 rows, 2975 columns, and 7735 nonzeros.
Reduced MIP has 1195 binaries, 0 generals, 0 SOSs, and 0 indicators.
Presolve time = 0.00 sec. (6.66 ticks)
Probing fixed 0 vars, tightened 2401 bounds.
Probing time = 0.00 sec. (6.41 ticks)
Clique table members: 190.
MIP emphasis: optimality.
MIP search method: dynamic search.
Parallel mode: deterministic, using up to 8 threads.
Root relaxation solution time = 0.01 sec. (7.84 ticks)

        Nodes                                         Cuts/
   Node  Left     Objective  IInf  Best Integer    Best Bound    ItCnt     Gap

      0     0   348385.3466   472                 348385.3466      882         
      0     0   526839.1591   564                   Cuts: 726     3195         
*     0+    0                       1.04207e+07   526839.1591            94.94%
*     0+    0                      8230245.0000   526839.1591            93.60%
      0     0   755303.5808   608  8230245.0000     Cuts: 726     5270   90.82%
      0     0   907289.8360   718  8230245.0000     Cuts: 726     7478   88.98%
      0     0  1022205.4109   639  8230245.0000     Cuts: 726     9409   87.58%
      0     0  1102367.0255   717  8230245.0000     Cuts: 726    11132   86.61%
Detecting symmetries...
      0     0  1153516.8218   734  8230245.0000     Cuts: 726    13012   85.86%
      0     0  1204224.4331   690  8230245.0000     Cuts: 726    14898   85.11%
      0     0  1240186.3569   757  8230245.0000     Cuts: 726    16985   84.78%

Cover cuts applied:  10
Flow cuts applied:  402
Mixed integer rounding cuts applied:  855
Flow path cuts applied:  52
Multi commodity flow cuts applied:  34
Gomory fractional cuts applied:  12
Disjunctive cuts applied:  0
Cone linearizations applied:  0

Root node processing (before b&c):
  Real time             =    5.01 sec. (7301.61 ticks)
Parallel b&c, 8 threads:
  Real time             =    0.00 sec. (0.00 ticks)
  Sync time (average)   =    0.00 sec.
  Wait time (average)   =    0.00 sec.
                          ------------
Total (root+branch&cut) =    5.01 sec. (7301.61 ticks)
Gap: 84.58%
Upper bound: 8.23024e+06
Lower bound: 1.26948e+06
End of CPLEX run. Time: 5.01012 seconds

===== New CPLEX run =====
Instance: /home/yorig/tuner/mpils-tests/instances/miplib/easy/lotsize.mps
Config: /scratch/yorig/mpils-results-grid-seconds-5-no-mip-start/easy/16proc/seed-3/4_lotsize_seed-3_20260502_223218/iterated_local_search/run_3_worker_11/ils_config_17036477291583998284.prm
========================

Selected objective sense:  MINIMIZE
Selected objective  name:  R1921
Selected RHS        name:  B
Selected bound      name:  BOUND
Version identifier: 22.1.2.0 | 2024-11-26 | 0edbb82fd
CPXPARAM_Threads                                 8
CPXPARAM_Parallel                                1
CPXPARAM_MIP_Strategy_SubAlgorithm               1
CPXPARAM_MIP_Strategy_VariableSelect             4
CPXPARAM_MIP_Cuts_FlowCovers                     1
CPXPARAM_MIP_Cuts_Implied                        -1
CPXPARAM_MIP_Cuts_GUBCovers                      -1
CPXPARAM_MIP_Cuts_PathCut                        -1
CPXPARAM_MIP_Cuts_MIRCut                         2
CPXPARAM_MIP_Cuts_Disjunctive                    2
CPXPARAM_Emphasis_MIP                            2
CPXPARAM_MIP_Strategy_BBInterval                 30
CPXPARAM_TimeLimit                               5
CPXPARAM_MIP_Limits_CutsFactor                   8
Tried aggregator 1 time.
MIP Presolve eliminated 595 rows and 0 columns.
MIP Presolve added 1190 rows and 0 columns.
MIP Presolve modified 10 coefficients.
Reduced MIP has 2515 rows, 2985 columns, and 7755 nonzeros.
Reduced MIP has 1195 binaries, 0 generals, 0 SOSs, and 0 indicators.
Presolve time = 0.00 sec. (4.53 ticks)
Probing fixed 0 vars, tightened 5487 bounds.
Probing time = 0.01 sec. (18.38 ticks)
Tried aggregator 2 times.
Detecting symmetries...
MIP Presolve modified 1206 coefficients.
Aggregator did 10 substitutions.
Reduced MIP has 2505 rows, 2975 columns, and 7735 nonzeros.
Reduced MIP has 1195 binaries, 0 generals, 0 SOSs, and 0 indicators.
Presolve time = 0.00 sec. (6.66 ticks)
Probing fixed 0 vars, tightened 2401 bounds.
Probing time = 0.00 sec. (6.41 ticks)
Clique table members: 190.
MIP emphasis: optimality.
MIP search method: dynamic search.
Parallel mode: deterministic, using up to 8 threads.
Root relaxation solution time = 0.01 sec. (7.84 ticks)

        Nodes                                         Cuts/
   Node  Left     Objective  IInf  Best Integer    Best Bound    ItCnt     Gap

      0     0   348385.3466   472                 348385.3466      882         
      0     0   526839.1591   564                   Cuts: 726     3195         
*     0+    0                       1.04207e+07   526839.1591            94.94%
*     0+    0                      8230245.0000   526839.1591            93.60%
      0     0   764041.6544   578  8230245.0000     Cuts: 726     5315   90.72%
      0     0   921180.6687   649  8230245.0000     Cuts: 726     7568   88.81%
*     0+    0                      2070949.0000   921180.6687            55.52%
      0     0  1047045.6595   605  2070949.0000     Cuts: 726     9515   49.44%
*     0+    0                      1987375.0000  1047045.6595            47.32%
      0     0  1113422.3678   697  1987375.0000     Cuts: 726    11212   43.05%
Detecting symmetries...
      0     0  1176712.0323   687  1987375.0000     Cuts: 726    13395   40.79%
      0     0  1211361.8978   695  1987375.0000     Cuts: 726    15093   38.62%
      0     0  1241339.0416   747  1987375.0000     Cuts: 591    16944   37.07%

Cover cuts applied:  10
Flow cuts applied:  704
Mixed integer rounding cuts applied:  1155
Multi commodity flow cuts applied:  58
Gomory fractional cuts applied:  9
Disjunctive cuts applied:  0
Cone linearizations applied:  0

Root node processing (before b&c):
  Real time             =    5.01 sec. (7744.08 ticks)
Parallel b&c, 8 threads:
  Real time             =    0.00 sec. (0.00 ticks)
  Sync time (average)   =    0.00 sec.
  Wait time (average)   =    0.00 sec.
                          ------------
Total (root+branch&cut) =    5.01 sec. (7744.08 ticks)
Gap: 36.19%
Upper bound: 1.98738e+06
Lower bound: 1.26815e+06
End of CPLEX run. Time: 5.00997 seconds
